p cnf 60 1213
-4 -14
-4 -18
-4 -20
-4 -38
-4 -64
-4 -66
-4 -76
-4 -90
-4 -102
-4 -110
-4 -112
-4 -116
-4 -128
-4 -132
-4 -142
-4 -146
-4 -148
-4 -150
-4 -156
-4 -170
-4 -176
-4 -190
-4 -196
-4 -202
-4 -204
-4 -212
-4 -218
-4 -228
-4 -236
-4 -264
-4 -268
-4 -270
-4 -282
-4 -286
-4 -288
-4 -314
-4 -330
-4 -338
-4 -348
-4 -350
-4 -354
-4 -372
-4 -386
-4 -390
-4 -392
-4 -396
-4 -398
-14 -18
-14 -20
-14 -38
-14 -50
-14 -64
-14 -66
-14 -76
-14 -108
-14 -110
-14 -112
-14 -128
-14 -142
-14 -146
-14 -148
-14 -150
-14 -156
-14 -176
-14 -196
-14 -202
-14 -204
-14 -212
-14 -218
-14 -226
-14 -228
-14 -268
-14 -282
-14 -284
-14 -286
-14 -288
-14 -308
-14 -314
-14 -330
-14 -354
-14 -372
-14 -384
-14 -390
-14 -392
-14 -396
-14 -398
-18 -20
-18 -38
-18 -64
-18 -66
-18 -76
-18 -90
-18 -108
-18 -110
-18 -128
-18 -148
-18 -174
-18 -188
-18 -196
-18 -198
-18 -212
-18 -218
-18 -236
-18 -264
-18 -268
-18 -282
-18 -284
-18 -288
-18 -308
-18 -314
-18 -330
-18 -348
-18 -350
-18 -354
-18 -364
-18 -372
-18 -384
-18 -386
-18 -390
-18 -392
-20 -38
-20 -66
-20 -90
-20 -102
-20 -108
-20 -110
-20 -112
-20 -116
-20 -128
-20 -132
-20 -142
-20 -146
-20 -148
-20 -150
-20 -156
-20 -170
-20 -176
-20 -188
-20 -190
-20 -196
-20 -198
-20 -226
-20 -228
-20 -236
-20 -268
-20 -270
-20 -282
-20 -284
-20 -288
-20 -308
-20 -314
-20 -330
-20 -338
-20 -340
-20 -350
-20 -354
-20 -364
-20 -384
-20 -386
-20 -392
-20 -396
-20 -398
-38 -50
-38 -66
-38 -88
-38 -90
-38 -102
-38 -108
-38 -116
-38 -132
-38 -142
-38 -146
-38 -150
-38 -174
-38 -188
-38 -190
-38 -196
-38 -198
-38 -202
-38 -212
-38 -228
-38 -268
-38 -282
-38 -284
-38 -288
-38 -308
-38 -314
-38 -330
-38 -338
-38 -340
-38 -350
-38 -354
-38 -364
-38 -372
-38 -384
-38 -392
-38 -396
-38 -398
-50 -66
-50 -76
-50 -88
-50 -90
-50 -102
-50 -108
-50 -110
-50 -128
-50 -142
-50 -146
-50 -156
-50 -170
-50 -174
-50 -176
-50 -188
-50 -190
-50 -198
-50 -202
-50 -204
-50 -218
-50 -226
-50 -228
-50 -236
-50 -264
-50 -268
-50 -282
-50 -284
-50 -286
-50 -314
-50 -330
-50 -338
-50 -340
-50 -348
-50 -354
-50 -364
-50 -372
-50 -384
-50 -386
-50 -392
-50 -396
-50 -398
-64 -66
-64 -76
-64 -88
-64 -90
-64 -108
-64 -116
-64 -128
-64 -132
-64 -142
-64 -146
-64 -148
-64 -150
-64 -156
-64 -170
-64 -190
-64 -202
-64 -218
-64 -226
-64 -236
-64 -264
-64 -268
-64 -270
-64 -282
-64 -284
-64 -288
-64 -308
-64 -330
-64 -338
-64 -340
-64 -350
-64 -364
-64 -372
-64 -384
-64 -386
-64 -392
-64 -396
-66 -76
-66 -88
-66 -90
-66 -102
-66 -108
-66 -110
-66 -112
-66 -116
-66 -128
-66 -132
-66 -142
-66 -146
-66 -148
-66 -150
-66 -174
-66 -176
-66 -188
-66 -196
-66 -204
-66 -218
-66 -236
-66 -264
-66 -282
-66 -284
-66 -286
-66 -288
-66 -308
-66 -314
-66 -338
-66 -340
-66 -348
-66 -350
-66 -354
-66 -364
-66 -386
-66 -390
-66 -392
-76 -88
-76 -90
-76 -102
-76 -112
-76 -128
-76 -132
-76 -146
-76 -148
-76 -150
-76 -156
-76 -176
-76 -188
-76 -196
-76 -198
-76 -202
-76 -204
-76 -212
-76 -228
-76 -236
-76 -264
-76 -268
-76 -270
-76 -282
-76 -286
-76 -308
-76 -314
-76 -330
-76 -338
-76 -340
-76 -348
-76 -350
-76 -354
-76 -364
-76 -372
-76 -384
-76 -386
-76 -390
-76 -392
-76 -396
-76 -398
-88 -90
-88 -102
-88 -108
-88 -110
-88 -112
-88 -116
-88 -128
-88 -146
-88 -148
-88 -170
-88 -174
-88 -176
-88 -196
-88 -198
-88 -202
-88 -204
-88 -212
-88 -236
-88 -268
-88 -270
-88 -282
-88 -284
-88 -286
-88 -288
-88 -314
-88 -338
-88 -340
-88 -348
-88 -350
-88 -354
-88 -372
-88 -384
-88 -390
-88 -392
-88 -396
-88 -398
-90 -102
-90 -108
-90 -110
-90 -112
-90 -116
-90 -142
-90 -146
-90 -148
-90 -156
-90 -170
-90 -174
-90 -176
-90 -190
-90 -196
-90 -198
-90 -202
-90 -204
-90 -212
-90 -218
-90 -226
-90 -236
-90 -268
-90 -284
-90 -286
-90 -288
-90 -330
-90 -338
-90 -340
-90 -350
-90 -354
-90 -384
-90 -386
-90 -392
-90 -396
-90 -398
-102 -108
-102 -112
-102 -128
-102 -132
-102 -142
-102 -146
-102 -148
-102 -150
-102 -170
-102 -174
-102 -176
-102 -188
-102 -196
-102 -198
-102 -202
-102 -204
-102 -212
-102 -218
-102 -226
-102 -228
-102 -236
-102 -268
-102 -270
-102 -282
-102 -284
-102 -286
-102 -288
-102 -340
-102 -384
-102 -386
-102 -390
-102 -392
-102 -396
-102 -398
-108 -110
-108 -112
-108 -116
-108 -128
-108 -142
-108 -174
-108 -176
-108 -188
-108 -190
-108 -198
-108 -202
-108 -204
-108 -226
-108 -264
-108 -268
-108 -270
-108 -284
-108 -286
-108 -288
-108 -308
-108 -330
-108 -338
-108 -348
-108 -354
-108 -364
-108 -384
-108 -390
-108 -392
-108 -396
-108 -398
-110 -112
-110 -116
-110 -132
-110 -142
-110 -148
-110 -170
-110 -188
-110 -190
-110 -198
-110 -202
-110 -204
-110 -228
-110 -236
-110 -264
-110 -268
-110 -284
-110 -288
-110 -330
-110 -338
-110 -340
-110 -348
-110 -354
-110 -364
-110 -372
-110 -384
-110 -386
-110 -390
-110 -392
-110 -396
-110 -398
-112 -116
-112 -142
-112 -146
-112 -150
-112 -170
-112 -176
-112 -188
-112 -190
-112 -196
-112 -198
-112 -202
-112 -204
-112 -212
-112 -236
-112 -264
-112 -270
-112 -282
-112 -288
-112 -314
-112 -330
-112 -338
-112 -340
-112 -348
-112 -350
-112 -364
-112 -372
-112 -384
-112 -386
-112 -390
-112 -398
-116 -132
-116 -142
-116 -148
-116 -150
-116 -174
-116 -188
-116 -190
-116 -198
-116 -202
-116 -226
-116 -228
-116 -236
-116 -264
-116 -268
-116 -270
-116 -282
-116 -284
-116 -288
-116 -314
-116 -338
-116 -348
-116 -354
-116 -364
-116 -390
-116 -392
-116 -396
-116 -398
-128 -146
-128 -150
-128 -156
-128 -170
-128 -176
-128 -188
-128 -190
-128 -196
-128 -198
-128 -202
-128 -218
-128 -228
-128 -264
-128 -270
-128 -286
-128 -288
-128 -308
-128 -314
-128 -330
-128 -340
-128 -348
-128 -350
-128 -354
-128 -372
-128 -384
-128 -390
-128 -392
-128 -396
-128 -398
-132 -142
-132 -148
-132 -150
-132 -156
-132 -170
-132 -176
-132 -190
-132 -196
-132 -218
-132 -226
-132 -228
-132 -236
-132 -264
-132 -268
-132 -284
-132 -286
-132 -288
-132 -308
-132 -314
-132 -330
-132 -338
-132 -340
-132 -354
-132 -364
-132 -372
-132 -390
-132 -398
-142 -146
-142 -150
-142 -156
-142 -170
-142 -174
-142 -176
-142 -188
-142 -190
-142 -202
-142 -204
-142 -212
-142 -218
-142 -226
-142 -236
-142 -264
-142 -268
-142 -270
-142 -282
-142 -286
-142 -308
-142 -330
-142 -340
-142 -348
-142 -354
-142 -364
-142 -384
-142 -390
-142 -392
-142 -398
-146 -148
-146 -150
-146 -156
-146 -174
-146 -188
-146 -196
-146 -198
-146 -202
-146 -204
-146 -212
-146 -218
-146 -226
-146 -228
-146 -286
-146 -288
-146 -308
-146 -314
-146 -338
-146 -340
-146 -354
-146 -364
-146 -372
-146 -384
-146 -386
-146 -390
-146 -392
-146 -396
-148 -150
-148 -170
-148 -176
-148 -190
-148 -198
-148 -202
-148 -204
-148 -218
-148 -264
-148 -270
-148 -286
-148 -288
-148 -308
-148 -330
-148 -338
-148 -348
-148 -354
-148 -364
-148 -384
-148 -386
-148 -396
-148 -398
-150 -190
-150 -196
-150 -204
-150 -212
-150 -226
-150 -236
-150 -270
-150 -286
-150 -288
-150 -308
-150 -330
-150 -338
-150 -340
-150 -348
-150 -354
-150 -364
-150 -390
-150 -398
-156 -170
-156 -176
-156 -190
-156 -196
-156 -198
-156 -202
-156 -212
-156 -218
-156 -236
-156 -264
-156 -270
-156 -282
-156 -284
-156 -288
-156 -308
-156 -314
-156 -330
-156 -338
-156 -340
-156 -348
-156 -354
-156 -364
-156 -384
-156 -386
-156 -390
-156 -392
-170 -174
-170 -176
-170 -190
-170 -196
-170 -202
-170 -218
-170 -226
-170 -228
-170 -268
-170 -270
-170 -282
-170 -286
-170 -288
-170 -308
-170 -314
-170 -338
-170 -348
-170 -350
-170 -354
-170 -364
-170 -386
-170 -390
-170 -392
-170 -396
-170 -398
-174 -188
-174 -190
-174 -202
-174 -204
-174 -212
-174 -228
-174 -270
-174 -282
-174 -284
-174 -286
-174 -288
-174 -308
-174 -314
-174 -330
-174 -338
-174 -340
-174 -350
-174 -354
-174 -372
-174 -384
-174 -390
-174 -392
-174 -396
-176 -188
-176 -190
-176 -196
-176 -198
-176 -202
-176 -204
-176 -212
-176 -226
-176 -228
-176 -236
-176 -264
-176 -268
-176 -282
-176 -284
-176 -286
-176 -288
-176 -308
-176 -314
-176 -338
-176 -340
-176 -348
-176 -350
-176 -384
-176 -386
-176 -396
-176 -398
-188 -190
-188 -198
-188 -202
-188 -212
-188 -218
-188 -226
-188 -228
-188 -264
-188 -268
-188 -288
-188 -330
-188 -338
-188 -340
-188 -350
-188 -354
-188 -364
-188 -384
-188 -386
-188 -390
-188 -396
-188 -398
-190 -198
-190 -202
-190 -204
-190 -212
-190 -218
-190 -226
-190 -228
-190 -236
-190 -270
-190 -284
-190 -286
-190 -308
-190 -314
-190 -330
-190 -338
-190 -340
-190 -350
-190 -372
-190 -384
-190 -386
-190 -392
-190 -396
-190 -398
-196 -198
-196 -202
-196 -218
-196 -236
-196 -268
-196 -270
-196 -282
-196 -284
-196 -286
-196 -288
-196 -338
-196 -340
-196 -354
-196 -364
-196 -372
-196 -386
-196 -390
-196 -392
-196 -396
-196 -398
-198 -212
-198 -218
-198 -226
-198 -228
-198 -236
-198 -270
-198 -282
-198 -284
-198 -286
-198 -288
-198 -308
-198 -330
-198 -338
-198 -340
-198 -348
-198 -350
-198 -354
-198 -364
-198 -372
-198 -384
-198 -386
-198 -390
-198 -392
-202 -204
-202 -212
-202 -218
-202 -228
-202 -264
-202 -270
-202 -282
-202 -284
-202 -286
-202 -314
-202 -330
-202 -340
-202 -348
-202 -350
-202 -364
-202 -384
-202 -390
-202 -396
-202 -398
-204 -212
-204 -218
-204 -226
-204 -228
-204 -236
-204 -264
-204 -270
-204 -284
-204 -286
-204 -288
-204 -308
-204 -314
-204 -330
-204 -338
-204 -340
-204 -354
-204 -364
-204 -384
-204 -390
-204 -392
-204 -396
-204 -398
-212 -228
-212 -264
-212 -268
-212 -270
-212 -286
-212 -330
-212 -338
-212 -340
-212 -354
-212 -364
-212 -384
-212 -386
-212 -390
-212 -396
-212 -398
-218 -228
-218 -236
-218 -264
-218 -268
-218 -270
-218 -282
-218 -284
-218 -288
-218 -308
-218 -314
-218 -330
-218 -338
-218 -348
-218 -350
-218 -354
-218 -364
-218 -386
-218 -390
-218 -398
-226 -228
-226 -236
-226 -264
-226 -268
-226 -270
-226 -288
-226 -308
-226 -314
-226 -330
-226 -338
-226 -340
-226 -348
-226 -350
-226 -364
-226 -386
-226 -390
-226 -392
-226 -398
-228 -236
-228 -264
-228 -268
-228 -270
-228 -282
-228 -288
-228 -314
-228 -340
-228 -348
-228 -350
-228 -354
-228 -364
-228 -372
-228 -390
-228 -392
-228 -396
-228 -398
-236 -264
-236 -270
-236 -284
-236 -286
-236 -288
-236 -308
-236 -330
-236 -340
-236 -348
-236 -354
-236 -364
-236 -372
-236 -384
-236 -386
-236 -398
-264 -268
-264 -270
-264 -282
-264 -286
-264 -288
-264 -308
-264 -314
-264 -338
-264 -340
-264 -350
-264 -364
-264 -372
-264 -386
-264 -390
-264 -392
-264 -396
-264 -398
-268 -270
-268 -284
-268 -286
-268 -308
-268 -314
-268 -330
-268 -348
-268 -350
-268 -354
-268 -372
-268 -384
-268 -390
-268 -392
-268 -396
-268 -398
-270 -282
-270 -284
-270 -286
-270 -288
-270 -308
-270 -314
-270 -338
-270 -340
-270 -348
-270 -354
-270 -372
-270 -384
-270 -386
-270 -396
-282 -284
-282 -286
-282 -288
-282 -308
-282 -314
-282 -330
-282 -338
-282 -340
-282 -348
-282 -350
-282 -354
-282 -364
-282 -372
-282 -384
-282 -396
-282 -398
-284 -286
-284 -288
-284 -314
-284 -330
-284 -338
-284 -348
-284 -350
-284 -364
-284 -372
-284 -384
-284 -386
-284 -392
-284 -398
-286 -288
-286 -314
-286 -330
-286 -348
-286 -350
-286 -354
-286 -364
-286 -372
-286 -384
-286 -386
-286 -390
-288 -308
-288 -314
-288 -340
-288 -364
-288 -372
-288 -384
-288 -390
-288 -392
-288 -396
-308 -314
-308 -330
-308 -338
-308 -340
-308 -348
-308 -354
-308 -364
-308 -372
-308 -384
-308 -386
-308 -390
-308 -396
-308 -398
-314 -340
-314 -348
-314 -350
-314 -354
-314 -372
-314 -386
-314 -390
-314 -398
-330 -338
-330 -350
-330 -364
-330 -384
-330 -386
-330 -390
-330 -392
-330 -396
-330 -398
-338 -340
-338 -354
-338 -364
-338 -384
-338 -390
-338 -392
-338 -396
-338 -398
-340 -348
-340 -354
-340 -364
-340 -372
-340 -384
-340 -390
-340 -392
-340 -396
-348 -384
-348 -386
-348 -390
-348 -396
-348 -398
-350 -354
-350 -364
-350 -372
-350 -386
-350 -390
-350 -392
-350 -396
-354 -384
-354 -390
-354 -392
-354 -396
-354 -398
-364 -372
-364 -386
-364 -396
-372 -386
-372 -390
-372 -392
-372 -396
-372 -398
-384 -386
-384 -390
-384 -398
-386 -390
-386 -396
-390 -392
-390 -396
-392 -396
-396 -398

